(set-option :produce-models true)
(set-logic QF_LRA)
(set-info :notes | Strip-packing problem.|)
(declare-fun x0 () Real)
(declare-fun y0 () Real)
(declare-fun x1 () Real)
(declare-fun y1 () Real)
(declare-fun x2 () Real)
(declare-fun y2 () Real)
(declare-fun x3 () Real)
(declare-fun y3 () Real)
(declare-fun x4 () Real)
(declare-fun y4 () Real)
(declare-fun x5 () Real)
(declare-fun y5 () Real)
(declare-fun x6 () Real)
(declare-fun y6 () Real)
(declare-fun x7 () Real)
(declare-fun y7 () Real)
(declare-fun x8 () Real)
(declare-fun y8 () Real)
(declare-fun x9 () Real)
(declare-fun y9 () Real)
(declare-fun x10 () Real)
(declare-fun y10 () Real)
(declare-fun x11 () Real)
(declare-fun y11 () Real)
(declare-fun x12 () Real)
(declare-fun y12 () Real)
(declare-fun x13 () Real)
(declare-fun y13 () Real)
(declare-fun x14 () Real)
(declare-fun y14 () Real)
(declare-fun z () Real)
(declare-fun c () Real)
(assert (and (= c z) (and (>= x0 0) 
(and (>= y0 0) 
(and (>= x1 0) 
(and (>= y1 0) 
(and (>= x2 0) 
(and (>= y2 0) 
(and (>= x3 0) 
(and (>= y3 0) 
(and (>= x4 0) 
(and (>= y4 0) 
(and (>= x5 0) 
(and (>= y5 0) 
(and (>= x6 0) 
(and (>= y6 0) 
(and (>= x7 0) 
(and (>= y7 0) 
(and (>= x8 0) 
(and (>= y8 0) 
(and (>= x9 0) 
(and (>= y9 0) 
(and (>= x10 0) 
(and (>= y10 0) 
(and (>= x11 0) 
(and (>= y11 0) 
(and (>= x12 0) 
(and (>= y12 0) 
(and (>= x13 0) 
(and (>= y13 0) 
(and (>= x14 0) 
(and (>= y14 0) 
(and (>= z 0) 
(and (>= c 0) 
(and (<= (+ x0 0.4436308596) z) 
(and (<= 0.9185313709 y0) 
(and (<= y0 1.9364916731) 
(and (<= x0 (- 4.6684014659 0.4436308596)) 
(and (>= x0 0) 
(and (<= (+ x1 0.2901004187) z) 
(and (<= 0.8775628068 y1) 
(and (<= y1 1.9364916731) 
(and (<= x1 (- 4.6684014659 0.2901004187)) 
(and (>= x1 0) 
(and (<= (+ x2 0.7496000309) z) 
(and (<= 0.8125415318 y2) 
(and (<= y2 1.9364916731) 
(and (<= x2 (- 4.6684014659 0.7496000309)) 
(and (>= x2 0) 
(and (<= (+ x3 0.8540451993) z) 
(and (<= 0.8108246783 y3) 
(and (<= y3 1.9364916731) 
(and (<= x3 (- 4.6684014659 0.8540451993)) 
(and (>= x3 0) 
(and (<= (+ x4 0.6363173722) z) 
(and (<= 0.723896821 y4) 
(and (<= y4 1.9364916731) 
(and (<= x4 (- 4.6684014659 0.6363173722)) 
(and (>= x4 0) 
(and (<= (+ x5 0.9715711646) z) 
(and (<= 0.7212020128 y5) 
(and (<= y5 1.9364916731) 
(and (<= x5 (- 4.6684014659 0.9715711646)) 
(and (>= x5 0) 
(and (<= (+ x6 0.1875434486) z) 
(and (<= 0.6756296382 y6) 
(and (<= y6 1.9364916731) 
(and (<= x6 (- 4.6684014659 0.1875434486)) 
(and (>= x6 0) 
(and (<= (+ x7 0.4566928841) z) 
(and (<= 0.6722280988 y7) 
(and (<= y7 1.9364916731) 
(and (<= x7 (- 4.6684014659 0.4566928841)) 
(and (>= x7 0) 
(and (<= (+ x8 0.7191385496) z) 
(and (<= 0.6645670932 y8) 
(and (<= y8 1.9364916731) 
(and (<= x8 (- 4.6684014659 0.7191385496)) 
(and (>= x8 0) 
(and (<= (+ x9 0.1608925327) z) 
(and (<= 0.4594532318 y9) 
(and (<= y9 1.9364916731) 
(and (<= x9 (- 4.6684014659 0.1608925327)) 
(and (>= x9 0) 
(and (<= (+ x10 0.4044970816) z) 
(and (<= 0.3462738923 y10) 
(and (<= y10 1.9364916731) 
(and (<= x10 (- 4.6684014659 0.4044970816)) 
(and (>= x10 0) 
(and (<= (+ x11 0.9304156619) z) 
(and (<= 0.3258306444 y11) 
(and (<= y11 1.9364916731) 
(and (<= x11 (- 4.6684014659 0.9304156619)) 
(and (>= x11 0) 
(and (<= (+ x12 0.2451438152) z) 
(and (<= 0.1637555026 y12) 
(and (<= y12 1.9364916731) 
(and (<= x12 (- 4.6684014659 0.2451438152)) 
(and (>= x12 0) 
(and (<= (+ x13 0.4860250606) z) 
(and (<= 0.1075275414 y13) 
(and (<= y13 1.9364916731) 
(and (<= x13 (- 4.6684014659 0.4860250606)) 
(and (>= x13 0) 
(and (<= (+ x14 0.347262064) z) 
(and (<= 0.0242953997 y14) 
(and (<= y14 1.9364916731) 
(and (<= x14 (- 4.6684014659 0.347262064)) 
(and (>= x14 0) 
(and (<= c 4.6684014659) 
(and (or (<= (+ x0 0.4436308596) x1) (or (<= (+ x1 0.2901004187) x0) (or (>= (- y0 0.9185313709) y1) (or (>= (- y1 0.8775628068) y0))))) 
(and (or (<= (+ x0 0.4436308596) x2) (or (<= (+ x2 0.7496000309) x0) (or (>= (- y0 0.9185313709) y2) (or (>= (- y2 0.8125415318) y0))))) 
(and (or (<= (+ x0 0.4436308596) x3) (or (<= (+ x3 0.8540451993) x0) (or (>= (- y0 0.9185313709) y3) (or (>= (- y3 0.8108246783) y0))))) 
(and (or (<= (+ x0 0.4436308596) x4) (or (<= (+ x4 0.6363173722) x0) (or (>= (- y0 0.9185313709) y4) (or (>= (- y4 0.723896821) y0))))) 
(and (or (<= (+ x0 0.4436308596) x5) (or (<= (+ x5 0.9715711646) x0) (or (>= (- y0 0.9185313709) y5) (or (>= (- y5 0.7212020128) y0))))) 
(and (or (<= (+ x0 0.4436308596) x6) (or (<= (+ x6 0.1875434486) x0) (or (>= (- y0 0.9185313709) y6) (or (>= (- y6 0.6756296382) y0))))) 
(and (or (<= (+ x0 0.4436308596) x7) (or (<= (+ x7 0.4566928841) x0) (or (>= (- y0 0.9185313709) y7) (or (>= (- y7 0.6722280988) y0))))) 
(and (or (<= (+ x0 0.4436308596) x8) (or (<= (+ x8 0.7191385496) x0) (or (>= (- y0 0.9185313709) y8) (or (>= (- y8 0.6645670932) y0))))) 
(and (or (<= (+ x0 0.4436308596) x9) (or (<= (+ x9 0.1608925327) x0) (or (>= (- y0 0.9185313709) y9) (or (>= (- y9 0.4594532318) y0))))) 
(and (or (<= (+ x0 0.4436308596) x10) (or (<= (+ x10 0.4044970816) x0) (or (>= (- y0 0.9185313709) y10) (or (>= (- y10 0.3462738923) y0))))) 
(and (or (<= (+ x0 0.4436308596) x11) (or (<= (+ x11 0.9304156619) x0) (or (>= (- y0 0.9185313709) y11) (or (>= (- y11 0.3258306444) y0))))) 
(and (or (<= (+ x0 0.4436308596) x12) (or (<= (+ x12 0.2451438152) x0) (or (>= (- y0 0.9185313709) y12) (or (>= (- y12 0.1637555026) y0))))) 
(and (or (<= (+ x0 0.4436308596) x13) (or (<= (+ x13 0.4860250606) x0) (or (>= (- y0 0.9185313709) y13) (or (>= (- y13 0.1075275414) y0))))) 
(and (or (<= (+ x0 0.4436308596) x14) (or (<= (+ x14 0.347262064) x0) (or (>= (- y0 0.9185313709) y14) (or (>= (- y14 0.0242953997) y0))))) 
(and (or (<= (+ x1 0.2901004187) x2) (or (<= (+ x2 0.7496000309) x1) (or (>= (- y1 0.8775628068) y2) (or (>= (- y2 0.8125415318) y1))))) 
(and (or (<= (+ x1 0.2901004187) x3) (or (<= (+ x3 0.8540451993) x1) (or (>= (- y1 0.8775628068) y3) (or (>= (- y3 0.8108246783) y1))))) 
(and (or (<= (+ x1 0.2901004187) x4) (or (<= (+ x4 0.6363173722) x1) (or (>= (- y1 0.8775628068) y4) (or (>= (- y4 0.723896821) y1))))) 
(and (or (<= (+ x1 0.2901004187) x5) (or (<= (+ x5 0.9715711646) x1) (or (>= (- y1 0.8775628068) y5) (or (>= (- y5 0.7212020128) y1))))) 
(and (or (<= (+ x1 0.2901004187) x6) (or (<= (+ x6 0.1875434486) x1) (or (>= (- y1 0.8775628068) y6) (or (>= (- y6 0.6756296382) y1))))) 
(and (or (<= (+ x1 0.2901004187) x7) (or (<= (+ x7 0.4566928841) x1) (or (>= (- y1 0.8775628068) y7) (or (>= (- y7 0.6722280988) y1))))) 
(and (or (<= (+ x1 0.2901004187) x8) (or (<= (+ x8 0.7191385496) x1) (or (>= (- y1 0.8775628068) y8) (or (>= (- y8 0.6645670932) y1))))) 
(and (or (<= (+ x1 0.2901004187) x9) (or (<= (+ x9 0.1608925327) x1) (or (>= (- y1 0.8775628068) y9) (or (>= (- y9 0.4594532318) y1))))) 
(and (or (<= (+ x1 0.2901004187) x10) (or (<= (+ x10 0.4044970816) x1) (or (>= (- y1 0.8775628068) y10) (or (>= (- y10 0.3462738923) y1))))) 
(and (or (<= (+ x1 0.2901004187) x11) (or (<= (+ x11 0.9304156619) x1) (or (>= (- y1 0.8775628068) y11) (or (>= (- y11 0.3258306444) y1))))) 
(and (or (<= (+ x1 0.2901004187) x12) (or (<= (+ x12 0.2451438152) x1) (or (>= (- y1 0.8775628068) y12) (or (>= (- y12 0.1637555026) y1))))) 
(and (or (<= (+ x1 0.2901004187) x13) (or (<= (+ x13 0.4860250606) x1) (or (>= (- y1 0.8775628068) y13) (or (>= (- y13 0.1075275414) y1))))) 
(and (or (<= (+ x1 0.2901004187) x14) (or (<= (+ x14 0.347262064) x1) (or (>= (- y1 0.8775628068) y14) (or (>= (- y14 0.0242953997) y1))))) 
(and (or (<= (+ x2 0.7496000309) x3) (or (<= (+ x3 0.8540451993) x2) (or (>= (- y2 0.8125415318) y3) (or (>= (- y3 0.8108246783) y2))))) 
(and (or (<= (+ x2 0.7496000309) x4) (or (<= (+ x4 0.6363173722) x2) (or (>= (- y2 0.8125415318) y4) (or (>= (- y4 0.723896821) y2))))) 
(and (or (<= (+ x2 0.7496000309) x5) (or (<= (+ x5 0.9715711646) x2) (or (>= (- y2 0.8125415318) y5) (or (>= (- y5 0.7212020128) y2))))) 
(and (or (<= (+ x2 0.7496000309) x6) (or (<= (+ x6 0.1875434486) x2) (or (>= (- y2 0.8125415318) y6) (or (>= (- y6 0.6756296382) y2))))) 
(and (or (<= (+ x2 0.7496000309) x7) (or (<= (+ x7 0.4566928841) x2) (or (>= (- y2 0.8125415318) y7) (or (>= (- y7 0.6722280988) y2))))) 
(and (or (<= (+ x2 0.7496000309) x8) (or (<= (+ x8 0.7191385496) x2) (or (>= (- y2 0.8125415318) y8) (or (>= (- y8 0.6645670932) y2))))) 
(and (or (<= (+ x2 0.7496000309) x9) (or (<= (+ x9 0.1608925327) x2) (or (>= (- y2 0.8125415318) y9) (or (>= (- y9 0.4594532318) y2))))) 
(and (or (<= (+ x2 0.7496000309) x10) (or (<= (+ x10 0.4044970816) x2) (or (>= (- y2 0.8125415318) y10) (or (>= (- y10 0.3462738923) y2))))) 
(and (or (<= (+ x2 0.7496000309) x11) (or (<= (+ x11 0.9304156619) x2) (or (>= (- y2 0.8125415318) y11) (or (>= (- y11 0.3258306444) y2))))) 
(and (or (<= (+ x2 0.7496000309) x12) (or (<= (+ x12 0.2451438152) x2) (or (>= (- y2 0.8125415318) y12) (or (>= (- y12 0.1637555026) y2))))) 
(and (or (<= (+ x2 0.7496000309) x13) (or (<= (+ x13 0.4860250606) x2) (or (>= (- y2 0.8125415318) y13) (or (>= (- y13 0.1075275414) y2))))) 
(and (or (<= (+ x2 0.7496000309) x14) (or (<= (+ x14 0.347262064) x2) (or (>= (- y2 0.8125415318) y14) (or (>= (- y14 0.0242953997) y2))))) 
(and (or (<= (+ x3 0.8540451993) x4) (or (<= (+ x4 0.6363173722) x3) (or (>= (- y3 0.8108246783) y4) (or (>= (- y4 0.723896821) y3))))) 
(and (or (<= (+ x3 0.8540451993) x5) (or (<= (+ x5 0.9715711646) x3) (or (>= (- y3 0.8108246783) y5) (or (>= (- y5 0.7212020128) y3))))) 
(and (or (<= (+ x3 0.8540451993) x6) (or (<= (+ x6 0.1875434486) x3) (or (>= (- y3 0.8108246783) y6) (or (>= (- y6 0.6756296382) y3))))) 
(and (or (<= (+ x3 0.8540451993) x7) (or (<= (+ x7 0.4566928841) x3) (or (>= (- y3 0.8108246783) y7) (or (>= (- y7 0.6722280988) y3))))) 
(and (or (<= (+ x3 0.8540451993) x8) (or (<= (+ x8 0.7191385496) x3) (or (>= (- y3 0.8108246783) y8) (or (>= (- y8 0.6645670932) y3))))) 
(and (or (<= (+ x3 0.8540451993) x9) (or (<= (+ x9 0.1608925327) x3) (or (>= (- y3 0.8108246783) y9) (or (>= (- y9 0.4594532318) y3))))) 
(and (or (<= (+ x3 0.8540451993) x10) (or (<= (+ x10 0.4044970816) x3) (or (>= (- y3 0.8108246783) y10) (or (>= (- y10 0.3462738923) y3))))) 
(and (or (<= (+ x3 0.8540451993) x11) (or (<= (+ x11 0.9304156619) x3) (or (>= (- y3 0.8108246783) y11) (or (>= (- y11 0.3258306444) y3))))) 
(and (or (<= (+ x3 0.8540451993) x12) (or (<= (+ x12 0.2451438152) x3) (or (>= (- y3 0.8108246783) y12) (or (>= (- y12 0.1637555026) y3))))) 
(and (or (<= (+ x3 0.8540451993) x13) (or (<= (+ x13 0.4860250606) x3) (or (>= (- y3 0.8108246783) y13) (or (>= (- y13 0.1075275414) y3))))) 
(and (or (<= (+ x3 0.8540451993) x14) (or (<= (+ x14 0.347262064) x3) (or (>= (- y3 0.8108246783) y14) (or (>= (- y14 0.0242953997) y3))))) 
(and (or (<= (+ x4 0.6363173722) x5) (or (<= (+ x5 0.9715711646) x4) (or (>= (- y4 0.723896821) y5) (or (>= (- y5 0.7212020128) y4))))) 
(and (or (<= (+ x4 0.6363173722) x6) (or (<= (+ x6 0.1875434486) x4) (or (>= (- y4 0.723896821) y6) (or (>= (- y6 0.6756296382) y4))))) 
(and (or (<= (+ x4 0.6363173722) x7) (or (<= (+ x7 0.4566928841) x4) (or (>= (- y4 0.723896821) y7) (or (>= (- y7 0.6722280988) y4))))) 
(and (or (<= (+ x4 0.6363173722) x8) (or (<= (+ x8 0.7191385496) x4) (or (>= (- y4 0.723896821) y8) (or (>= (- y8 0.6645670932) y4))))) 
(and (or (<= (+ x4 0.6363173722) x9) (or (<= (+ x9 0.1608925327) x4) (or (>= (- y4 0.723896821) y9) (or (>= (- y9 0.4594532318) y4))))) 
(and (or (<= (+ x4 0.6363173722) x10) (or (<= (+ x10 0.4044970816) x4) (or (>= (- y4 0.723896821) y10) (or (>= (- y10 0.3462738923) y4))))) 
(and (or (<= (+ x4 0.6363173722) x11) (or (<= (+ x11 0.9304156619) x4) (or (>= (- y4 0.723896821) y11) (or (>= (- y11 0.3258306444) y4))))) 
(and (or (<= (+ x4 0.6363173722) x12) (or (<= (+ x12 0.2451438152) x4) (or (>= (- y4 0.723896821) y12) (or (>= (- y12 0.1637555026) y4))))) 
(and (or (<= (+ x4 0.6363173722) x13) (or (<= (+ x13 0.4860250606) x4) (or (>= (- y4 0.723896821) y13) (or (>= (- y13 0.1075275414) y4))))) 
(and (or (<= (+ x4 0.6363173722) x14) (or (<= (+ x14 0.347262064) x4) (or (>= (- y4 0.723896821) y14) (or (>= (- y14 0.0242953997) y4))))) 
(and (or (<= (+ x5 0.9715711646) x6) (or (<= (+ x6 0.1875434486) x5) (or (>= (- y5 0.7212020128) y6) (or (>= (- y6 0.6756296382) y5))))) 
(and (or (<= (+ x5 0.9715711646) x7) (or (<= (+ x7 0.4566928841) x5) (or (>= (- y5 0.7212020128) y7) (or (>= (- y7 0.6722280988) y5))))) 
(and (or (<= (+ x5 0.9715711646) x8) (or (<= (+ x8 0.7191385496) x5) (or (>= (- y5 0.7212020128) y8) (or (>= (- y8 0.6645670932) y5))))) 
(and (or (<= (+ x5 0.9715711646) x9) (or (<= (+ x9 0.1608925327) x5) (or (>= (- y5 0.7212020128) y9) (or (>= (- y9 0.4594532318) y5))))) 
(and (or (<= (+ x5 0.9715711646) x10) (or (<= (+ x10 0.4044970816) x5) (or (>= (- y5 0.7212020128) y10) (or (>= (- y10 0.3462738923) y5))))) 
(and (or (<= (+ x5 0.9715711646) x11) (or (<= (+ x11 0.9304156619) x5) (or (>= (- y5 0.7212020128) y11) (or (>= (- y11 0.3258306444) y5))))) 
(and (or (<= (+ x5 0.9715711646) x12) (or (<= (+ x12 0.2451438152) x5) (or (>= (- y5 0.7212020128) y12) (or (>= (- y12 0.1637555026) y5))))) 
(and (or (<= (+ x5 0.9715711646) x13) (or (<= (+ x13 0.4860250606) x5) (or (>= (- y5 0.7212020128) y13) (or (>= (- y13 0.1075275414) y5))))) 
(and (or (<= (+ x5 0.9715711646) x14) (or (<= (+ x14 0.347262064) x5) (or (>= (- y5 0.7212020128) y14) (or (>= (- y14 0.0242953997) y5))))) 
(and (or (<= (+ x6 0.1875434486) x7) (or (<= (+ x7 0.4566928841) x6) (or (>= (- y6 0.6756296382) y7) (or (>= (- y7 0.6722280988) y6))))) 
(and (or (<= (+ x6 0.1875434486) x8) (or (<= (+ x8 0.7191385496) x6) (or (>= (- y6 0.6756296382) y8) (or (>= (- y8 0.6645670932) y6))))) 
(and (or (<= (+ x6 0.1875434486) x9) (or (<= (+ x9 0.1608925327) x6) (or (>= (- y6 0.6756296382) y9) (or (>= (- y9 0.4594532318) y6))))) 
(and (or (<= (+ x6 0.1875434486) x10) (or (<= (+ x10 0.4044970816) x6) (or (>= (- y6 0.6756296382) y10) (or (>= (- y10 0.3462738923) y6))))) 
(and (or (<= (+ x6 0.1875434486) x11) (or (<= (+ x11 0.9304156619) x6) (or (>= (- y6 0.6756296382) y11) (or (>= (- y11 0.3258306444) y6))))) 
(and (or (<= (+ x6 0.1875434486) x12) (or (<= (+ x12 0.2451438152) x6) (or (>= (- y6 0.6756296382) y12) (or (>= (- y12 0.1637555026) y6))))) 
(and (or (<= (+ x6 0.1875434486) x13) (or (<= (+ x13 0.4860250606) x6) (or (>= (- y6 0.6756296382) y13) (or (>= (- y13 0.1075275414) y6))))) 
(and (or (<= (+ x6 0.1875434486) x14) (or (<= (+ x14 0.347262064) x6) (or (>= (- y6 0.6756296382) y14) (or (>= (- y14 0.0242953997) y6))))) 
(and (or (<= (+ x7 0.4566928841) x8) (or (<= (+ x8 0.7191385496) x7) (or (>= (- y7 0.6722280988) y8) (or (>= (- y8 0.6645670932) y7))))) 
(and (or (<= (+ x7 0.4566928841) x9) (or (<= (+ x9 0.1608925327) x7) (or (>= (- y7 0.6722280988) y9) (or (>= (- y9 0.4594532318) y7))))) 
(and (or (<= (+ x7 0.4566928841) x10) (or (<= (+ x10 0.4044970816) x7) (or (>= (- y7 0.6722280988) y10) (or (>= (- y10 0.3462738923) y7))))) 
(and (or (<= (+ x7 0.4566928841) x11) (or (<= (+ x11 0.9304156619) x7) (or (>= (- y7 0.6722280988) y11) (or (>= (- y11 0.3258306444) y7))))) 
(and (or (<= (+ x7 0.4566928841) x12) (or (<= (+ x12 0.2451438152) x7) (or (>= (- y7 0.6722280988) y12) (or (>= (- y12 0.1637555026) y7))))) 
(and (or (<= (+ x7 0.4566928841) x13) (or (<= (+ x13 0.4860250606) x7) (or (>= (- y7 0.6722280988) y13) (or (>= (- y13 0.1075275414) y7))))) 
(and (or (<= (+ x7 0.4566928841) x14) (or (<= (+ x14 0.347262064) x7) (or (>= (- y7 0.6722280988) y14) (or (>= (- y14 0.0242953997) y7))))) 
(and (or (<= (+ x8 0.7191385496) x9) (or (<= (+ x9 0.1608925327) x8) (or (>= (- y8 0.6645670932) y9) (or (>= (- y9 0.4594532318) y8))))) 
(and (or (<= (+ x8 0.7191385496) x10) (or (<= (+ x10 0.4044970816) x8) (or (>= (- y8 0.6645670932) y10) (or (>= (- y10 0.3462738923) y8))))) 
(and (or (<= (+ x8 0.7191385496) x11) (or (<= (+ x11 0.9304156619) x8) (or (>= (- y8 0.6645670932) y11) (or (>= (- y11 0.3258306444) y8))))) 
(and (or (<= (+ x8 0.7191385496) x12) (or (<= (+ x12 0.2451438152) x8) (or (>= (- y8 0.6645670932) y12) (or (>= (- y12 0.1637555026) y8))))) 
(and (or (<= (+ x8 0.7191385496) x13) (or (<= (+ x13 0.4860250606) x8) (or (>= (- y8 0.6645670932) y13) (or (>= (- y13 0.1075275414) y8))))) 
(and (or (<= (+ x8 0.7191385496) x14) (or (<= (+ x14 0.347262064) x8) (or (>= (- y8 0.6645670932) y14) (or (>= (- y14 0.0242953997) y8))))) 
(and (or (<= (+ x9 0.1608925327) x10) (or (<= (+ x10 0.4044970816) x9) (or (>= (- y9 0.4594532318) y10) (or (>= (- y10 0.3462738923) y9))))) 
(and (or (<= (+ x9 0.1608925327) x11) (or (<= (+ x11 0.9304156619) x9) (or (>= (- y9 0.4594532318) y11) (or (>= (- y11 0.3258306444) y9))))) 
(and (or (<= (+ x9 0.1608925327) x12) (or (<= (+ x12 0.2451438152) x9) (or (>= (- y9 0.4594532318) y12) (or (>= (- y12 0.1637555026) y9))))) 
(and (or (<= (+ x9 0.1608925327) x13) (or (<= (+ x13 0.4860250606) x9) (or (>= (- y9 0.4594532318) y13) (or (>= (- y13 0.1075275414) y9))))) 
(and (or (<= (+ x9 0.1608925327) x14) (or (<= (+ x14 0.347262064) x9) (or (>= (- y9 0.4594532318) y14) (or (>= (- y14 0.0242953997) y9))))) 
(and (or (<= (+ x10 0.4044970816) x11) (or (<= (+ x11 0.9304156619) x10) (or (>= (- y10 0.3462738923) y11) (or (>= (- y11 0.3258306444) y10))))) 
(and (or (<= (+ x10 0.4044970816) x12) (or (<= (+ x12 0.2451438152) x10) (or (>= (- y10 0.3462738923) y12) (or (>= (- y12 0.1637555026) y10))))) 
(and (or (<= (+ x10 0.4044970816) x13) (or (<= (+ x13 0.4860250606) x10) (or (>= (- y10 0.3462738923) y13) (or (>= (- y13 0.1075275414) y10))))) 
(and (or (<= (+ x10 0.4044970816) x14) (or (<= (+ x14 0.347262064) x10) (or (>= (- y10 0.3462738923) y14) (or (>= (- y14 0.0242953997) y10))))) 
(and (or (<= (+ x11 0.9304156619) x12) (or (<= (+ x12 0.2451438152) x11) (or (>= (- y11 0.3258306444) y12) (or (>= (- y12 0.1637555026) y11))))) 
(and (or (<= (+ x11 0.9304156619) x13) (or (<= (+ x13 0.4860250606) x11) (or (>= (- y11 0.3258306444) y13) (or (>= (- y13 0.1075275414) y11))))) 
(and (or (<= (+ x11 0.9304156619) x14) (or (<= (+ x14 0.347262064) x11) (or (>= (- y11 0.3258306444) y14) (or (>= (- y14 0.0242953997) y11))))) 
(and (or (<= (+ x12 0.2451438152) x13) (or (<= (+ x13 0.4860250606) x12) (or (>= (- y12 0.1637555026) y13) (or (>= (- y13 0.1075275414) y12))))) 
(and (or (<= (+ x12 0.2451438152) x14) (or (<= (+ x14 0.347262064) x12) (or (>= (- y12 0.1637555026) y14) (or (>= (- y14 0.0242953997) y12))))) 
(and (or (<= (+ x13 0.4860250606) x14) (or (<= (+ x14 0.347262064) x13) (or (>= (- y13 0.1075275414) y14) (or (>= (- y14 0.0242953997) y13))))) )))))))))))))))))))))))))))))))))))))))))))))))))))))))))))))))))))))))))))))))))))))))))))))))))))))))))))))))))))))))))))))))))))))))))))))))))))))))))))))))))))))))))))))))))))))))))))))))))))))))))))))))))))))))
(minimize c)
(check-sat)
(get-objectives)
(exit)
